SystemName          h2o_chess
SystemLabel         h2o
NumberOfAtoms       150
NumberOfSpecies     2

SolutionMethod CheSS
MaxSCFIterations 10
CheSS.Buffer.Kernel  2.0 Bohr
CheSS.Buffer.Mult    4.0 Bohr
CheSS.Fscale         4.d-2 Ry
CheSS.evlowH        -2.0 Ry
CheSS.evhighH        0.5 Ry
CheSS.evlowS         0.3
CheSS.evhighS        3.0

PAO.BasisSize SZ

MeshCutoff  50 Ry

%block ChemicalSpeciesLabel
 1  8  O      # Species index, atomic number, species label
 2  1  H
%endblock ChemicalSpeciesLabel

AtomicCoordinatesFormat  Ang
%block AtomicCoordinatesAndAtomicSpecies
     8.73360E+01    1.08882E+02    9.08855E+01    1  
     8.96060E+01    1.09041E+02    9.23415E+01    1  
     9.03620E+01    1.07515E+02    8.95875E+01    1  
     8.72970E+01    1.06274E+02    8.99505E+01    1  
     8.95130E+01    1.06405E+02    9.35005E+01    1  
     9.05580E+01    1.09429E+02    8.75945E+01    1  
     8.63240E+01    1.10899E+02    8.95545E+01    1  
     8.58950E+01    1.08650E+02    9.29555E+01    1  
     8.86610E+01    1.11331E+02    8.82295E+01    1  
     9.14960E+01    1.11049E+02    9.14375E+01    1  
     8.82320E+01    1.04504E+02    9.19595E+01    1  
     9.29640E+01    1.07599E+02    9.01035E+01    1  
     9.03110E+01    1.04966E+02    8.85375E+01    1  
     8.97110E+01    1.11486E+02    9.36275E+01    1  
     8.97730E+01    1.12687E+02    9.02455E+01    1  
     8.80370E+01    1.05567E+02    8.70745E+01    1  
     8.87020E+01    1.07800E+02    8.58955E+01    1  
     9.30410E+01    1.08020E+02    9.30465E+01    1  
     8.63120E+01    1.06350E+02    9.42955E+01    1  
     9.30450E+01    1.10898E+02    8.89765E+01    1  
     8.87020E+01    1.07800E+02    9.57605E+01    1  
     9.17350E+01    1.09950E+02    9.46845E+01    1  
     9.21390E+01    1.05774E+02    9.39355E+01    1  
     8.46590E+01    1.05007E+02    8.97695E+01    1  
     8.66740E+01    1.09706E+02    9.54715E+01    1  
     9.24400E+01    1.06603E+02    8.68135E+01    1  
     8.56070E+01    1.12939E+02    9.14635E+01    1  
     8.66740E+01    1.09706E+02    8.56065E+01    1  
     8.42020E+01    1.08915E+02    8.73855E+01    1  
     8.97730E+01    1.02822E+02    9.02455E+01    1  
     8.30990E+01    1.07599E+02    9.01035E+01    1  
     8.82320E+01    1.14369E+02    9.19595E+01    1  
     8.31760E+01    1.08020E+02    9.30465E+01    1  
     8.80450E+01    1.12185E+02    8.57965E+01    1  
     9.40670E+01    1.08915E+02    8.73855E+01    1  
     8.56070E+01    1.03074E+02    9.14635E+01    1  
     8.80450E+01    1.12185E+02    9.56615E+01    1  
     8.31800E+01    1.10898E+02    8.89765E+01    1  
     9.29120E+01    1.13213E+02    9.25415E+01    1  
     9.17350E+01    1.09950E+02    8.48195E+01    1  
     8.58530E+01    1.03675E+02    9.42975E+01    1  
     9.28170E+01    1.03743E+02    8.80085E+01    1  
     9.45240E+01    1.05007E+02    8.97695E+01    1  
     9.29120E+01    1.03348E+02    9.25415E+01    1  
     9.03110E+01    1.14831E+02    8.85375E+01    1  
     8.58530E+01    1.13540E+02    9.42975E+01    1  
     8.80370E+01    1.05567E+02    9.69395E+01    1  
     8.63120E+01    1.06350E+02    8.44305E+01    1  
     9.28170E+01    1.13608E+02    8.80085E+01    1  
     9.05580E+01    1.09429E+02    9.74595E+01    1  
     8.73880E+01    1.08052E+02    9.03735E+01    2  
     8.87710E+01    1.09207E+02    9.18135E+01    2  
     9.01520E+01    1.07708E+02    9.04845E+01    2  
     8.75170E+01    1.05727E+02    9.07775E+01    2  
     9.04730E+01    1.06287E+02    9.37435E+01    2  
     8.99060E+01    1.08915E+02    8.70265E+01    2  
     8.68150E+01    1.10126E+02    8.99175E+01    2  
     8.59750E+01    1.07741E+02    9.33935E+01    2  
     8.93970E+01    1.10854E+02    8.78355E+01    2  
     9.09870E+01    1.10190E+02    9.15705E+01    2  
     8.74090E+01    1.04126E+02    9.22215E+01    2  
     9.34430E+01    1.08074E+02    8.93975E+01    2  
     9.11020E+01    1.04652E+02    8.80765E+01    2  
     9.05100E+01    1.11144E+02    9.41545E+01    2  
     8.93310E+01    1.13227E+02    9.09285E+01    2  
     8.87840E+01    1.05072E+02    8.73655E+01    2  
     8.91620E+01    1.07338E+02    8.51375E+01    2  
     9.29590E+01    1.07819E+02    9.20975E+01    2  
     8.72520E+01    1.06301E+02    9.44765E+01    2  
     9.38940E+01    1.10944E+02    8.94415E+01    2  
     8.91620E+01    1.07338E+02    9.50025E+01    2  
     9.19780E+01    1.09164E+02    9.41575E+01    2  
     9.21920E+01    1.05015E+02    9.32855E+01    2  
     8.40450E+01    1.05648E+02    9.01715E+01    2  
     8.74070E+01    1.09022E+02    9.56545E+01    2  
     9.14910E+01    1.06635E+02    8.71075E+01    2  
     8.60230E+01    1.12226E+02    9.08725E+01    2  
     8.74070E+01    1.09022E+02    8.57895E+01    2  
     8.37040E+01    1.08171E+02    8.70015E+01    2  
     8.93310E+01    1.03362E+02    9.09285E+01    2  
     8.35780E+01    1.08074E+02    8.93975E+01    2  
     8.74090E+01    1.13991E+02    9.22215E+01    2  
     8.30940E+01    1.07819E+02    9.20975E+01    2  
     8.83820E+01    1.12098E+02    8.66985E+01    2  
     9.35690E+01    1.08171E+02    8.70015E+01    2  
     8.60230E+01    1.02361E+02    9.08725E+01    2  
     8.83820E+01    1.12098E+02    9.65635E+01    2  
     8.40290E+01    1.10944E+02    8.94415E+01    2  
     9.38070E+01    1.13011E+02    9.22625E+01    2  
     9.19780E+01    1.09164E+02    8.42925E+01    2  
     8.56680E+01    1.03188E+02    9.34615E+01    2  
     9.30570E+01    1.03530E+02    8.70575E+01    2  
     9.39100E+01    1.05648E+02    9.01715E+01    2  
     9.38070E+01    1.03146E+02    9.22625E+01    2  
     9.11020E+01    1.14517E+02    8.80765E+01    2  
     8.56680E+01    1.13053E+02    9.34615E+01    2  
     8.87840E+01    1.05072E+02    9.72305E+01    2  
     8.72520E+01    1.06301E+02    8.46115E+01    2  
     9.30570E+01    1.13395E+02    8.70575E+01    2  
     8.99060E+01    1.08915E+02    9.68915E+01    2  
     8.66830E+01    1.08673E+02    9.16235E+01    2  
     8.96320E+01    1.09772E+02    9.30505E+01    2  
     9.00060E+01    1.06557E+02    8.94655E+01    2  
     8.63200E+01    1.06015E+02    8.97415E+01    2  
     8.94310E+01    1.07276E+02    9.30055E+01    2  
     9.07600E+01    1.08918E+02    8.84435E+01    2  
     8.68930E+01    1.11206E+02    8.87695E+01    2  
     8.63480E+01    1.09319E+02    9.36515E+01    2  
     8.90500E+01    1.11949E+02    8.89145E+01    2  
     9.20900E+01    1.10837E+02    9.05915E+01    2  
     8.86220E+01    1.05134E+02    9.26055E+01    2  
     9.20600E+01    1.07414E+02    8.97015E+01    2  
     9.01380E+01    1.04239E+02    8.91895E+01    2  
     8.89340E+01    1.11626E+02    9.42885E+01    2  
     9.04250E+01    1.12075E+02    9.07015E+01    2  
     8.76250E+01    1.05837E+02    8.79345E+01    2  
     8.83540E+01    1.06979E+02    8.64345E+01    2  
     9.40070E+01    1.08401E+02    9.32115E+01    2  
     8.60830E+01    1.05390E+02    9.42115E+01    2  
     9.31770E+01    1.10260E+02    8.82035E+01    2  
     8.83540E+01    1.06979E+02    9.62995E+01    2  
     9.13840E+01    1.09546E+02    9.55615E+01    2  
     9.27560E+01    1.06540E+02    9.34945E+01    2  
     8.40930E+01    1.04763E+02    8.89225E+01    2  
     8.69600E+01    1.10672E+02    9.56935E+01    2  
     9.23270E+01    1.06197E+02    8.58455E+01    2  
     8.51820E+01    1.13520E+02    9.07345E+01    2  
     8.69600E+01    1.10672E+02    8.58285E+01    2  
     8.50080E+01    1.08913E+02    8.67685E+01    2  
     9.04250E+01    1.02210E+02    9.07015E+01    2  
     8.21950E+01    1.07414E+02    8.97015E+01    2  
     8.86220E+01    1.14999E+02    9.26055E+01    2  
     8.41420E+01    1.08401E+02    9.32115E+01    2  
     8.75130E+01    1.13025E+02    8.57265E+01    2  
     9.48730E+01    1.08913E+02    8.67685E+01    2  
     8.51820E+01    1.03655E+02    9.07345E+01    2  
     8.75130E+01    1.13025E+02    9.55915E+01    2  
     8.33120E+01    1.10260E+02    8.82035E+01    2  
     9.23250E+01    1.12529E+02    9.20895E+01    2  
     9.13840E+01    1.09546E+02    8.56965E+01    2  
     8.50800E+01    1.03445E+02    9.48955E+01    2  
     9.28290E+01    1.02822E+02    8.84665E+01    2  
     9.39580E+01    1.04763E+02    8.89225E+01    2  
     9.23250E+01    1.02664E+02    9.20895E+01    2  
     9.01380E+01    1.14104E+02    8.91895E+01    2  
     8.50800E+01    1.13310E+02    9.48955E+01    2  
     8.76250E+01    1.05837E+02    9.77995E+01    2  
     8.60830E+01    1.05390E+02    8.43465E+01    2  
     9.28290E+01    1.12687E+02    8.84665E+01    2  
     9.07600E+01    1.08918E+02    9.83085E+01    2  

%endblock AtomicCoordinatesAndAtomicSpecies
