#
# -- Simple SOC test -- artificially low quality parameters!!
#
SystemName              Pt dimer x-alignment y-spin
SystemLabel             Pt_dimer_soc

Spin   SO
%block DM.InitSpin
 1  +1.   90.  90.
 2  +1.   90.  90.
%endblock DM.InitSpin

NumberOfAtoms           2
NumberOfSpecies         1
%block Chemical_Species_label
        1       78      Pt_pt2_SOC
%endblock Chemical_Species_label

PAO.EnergyShift  100 meV
PAO.SplitNorm      0.15

%Block PAO.Basis
Pt_pt2_SOC          2          
 n=6   0    2   P   1  
   7.158    6.085
   1.000    1.000
 n=5   2    2         
   5.044    3.098
   1.000    1.000
%EndBlock PAO.Basis

LatticeConstant  12.0 Ang
%block LatticeVectors
     1.00      .00      .00
      .00     1.00      .00
      .00      .00     1.00
%endblock LatticeVectors

AtomicCoordinatesFormat NotScaledCartesianAng
%block AtomicCoordinatesAndAtomicSpecies
     -1.19940   0.00000   0.00000    1
      1.19940   0.00000   0.00000    1
%endblock AtomicCoordinatesAndAtomicSpecies

XC.functional           GGA
XC.authors              PBE

MeshCutoff              300. Ry

SolutionMethod          diagon

DM.Tolerance         1.0E-4
MaxSCFIterations     15
scf-must-converge    F
scf-mix-spin spinor      

DM.MixingWeight         0.01
DM.NumberPulay          6

WriteMullikenPop       1
WriteForces T
