opti conv dist full nosym phon dynamical_matrix
cutd 3.0

cell
21.6 21.6 21.6 90 90 90

cartesian 512
Si core 0.67500 0.67500 0.67500 0 1 0 1 1 1
Si core 0.67500 3.39099 3.39099 0 1 0 1 1 1
Si core 3.39099 0.67500 3.39099 0 1 0 1 1 1
Si core 3.39099 3.39099 0.67500 0 1 0 1 1 1
Si core 2.03299 2.03299 2.03299 0 1 0 1 1 1
Si core 2.03299 4.74898 4.74898 0 1 0 1 1 1
Si core 4.74898 2.03299 4.74898 0 1 0 1 1 1
Si core 4.74898 4.74898 2.03299 0 1 0 1 1 1
Si core 6.07500 0.67500 0.67500 0 1 0 1 1 1
Si core 6.07500 3.39099 3.39099 0 1 0 1 1 1
Si core 8.79099 0.67500 3.39099 0 1 0 1 1 1
Si core 8.79099 3.39099 0.67500 0 1 0 1 1 1
Si core 7.43299 2.03299 2.03299 0 1 0 1 1 1
Si core 7.43299 4.74898 4.74898 0 1 0 1 1 1
Si core 10.14898 2.03299 4.74898 0 1 0 1 1 1
Si core 10.14898 4.74898 2.03299 0 1 0 1 1 1
Si core 11.47500 0.67500 0.67500 0 1 0 1 1 1
Si core 11.47500 3.39099 3.39099 0 1 0 1 1 1
Si core 14.19099 0.67500 3.39099 0 1 0 1 1 1
Si core 14.19099 3.39099 0.67500 0 1 0 1 1 1
Si core 12.83299 2.03299 2.03299 0 1 0 1 1 1
Si core 12.83299 4.74898 4.74898 0 1 0 1 1 1
Si core 15.54898 2.03299 4.74898 0 1 0 1 1 1
Si core 15.54898 4.74898 2.03299 0 1 0 1 1 1
Si core 16.87500 0.67500 0.67500 0 1 0 1 1 1
Si core 16.87500 3.39099 3.39099 0 1 0 1 1 1
Si core 19.59099 0.67500 3.39099 0 1 0 1 1 1
Si core 19.59099 3.39099 0.67500 0 1 0 1 1 1
Si core 18.23299 2.03299 2.03299 0 1 0 1 1 1
Si core 18.23299 4.74898 4.74898 0 1 0 1 1 1
Si core 20.94898 2.03299 4.74898 0 1 0 1 1 1
Si core 20.94898 4.74898 2.03299 0 1 0 1 1 1
Si core 0.67500 6.07500 0.67500 0 1 0 1 1 1
Si core 0.67500 8.79099 3.39099 0 1 0 1 1 1
Si core 3.39099 6.07500 3.39099 0 1 0 1 1 1
Si core 3.39099 8.79099 0.67500 0 1 0 1 1 1
Si core 2.03299 7.43299 2.03299 0 1 0 1 1 1
Si core 2.03299 10.14898 4.74898 0 1 0 1 1 1
Si core 4.74898 7.43299 4.74898 0 1 0 1 1 1
Si core 4.74898 10.14898 2.03299 0 1 0 1 1 1
Si core 6.07500 6.07500 0.67500 0 1 0 1 1 1
Si core 6.07500 8.79099 3.39099 0 1 0 1 1 1
Si core 8.79099 6.07500 3.39099 0 1 0 1 1 1
Si core 8.79099 8.79099 0.67500 0 1 0 1 1 1
Si core 7.43299 7.43299 2.03299 0 1 0 1 1 1
Si core 7.43299 10.14898 4.74898 0 1 0 1 1 1
Si core 10.14898 7.43299 4.74898 0 1 0 1 1 1
Si core 10.14898 10.14898 2.03299 0 1 0 1 1 1
Si core 11.47500 6.07500 0.67500 0 1 0 1 1 1
Si core 11.47500 8.79099 3.39099 0 1 0 1 1 1
Si core 14.19099 6.07500 3.39099 0 1 0 1 1 1
Si core 14.19099 8.79099 0.67500 0 1 0 1 1 1
Si core 12.83299 7.43299 2.03299 0 1 0 1 1 1
Si core 12.83299 10.14898 4.74898 0 1 0 1 1 1
Si core 15.54898 7.43299 4.74898 0 1 0 1 1 1
Si core 15.54898 10.14898 2.03299 0 1 0 1 1 1
Si core 16.87500 6.07500 0.67500 0 1 0 1 1 1
Si core 16.87500 8.79099 3.39099 0 1 0 1 1 1
Si core 19.59099 6.07500 3.39099 0 1 0 1 1 1
Si core 19.59099 8.79099 0.67500 0 1 0 1 1 1
Si core 18.23299 7.43299 2.03299 0 1 0 1 1 1
Si core 18.23299 10.14898 4.74898 0 1 0 1 1 1
Si core 20.94898 7.43299 4.74898 0 1 0 1 1 1
Si core 20.94898 10.14898 2.03299 0 1 0 1 1 1
Si core 0.67500 11.47500 0.67500 0 1 0 1 1 1
Si core 0.67500 14.19099 3.39099 0 1 0 1 1 1
Si core 3.39099 11.47500 3.39099 0 1 0 1 1 1
Si core 3.39099 14.19099 0.67500 0 1 0 1 1 1
Si core 2.03299 12.83299 2.03299 0 1 0 1 1 1
Si core 2.03299 15.54898 4.74898 0 1 0 1 1 1
Si core 4.74898 12.83299 4.74898 0 1 0 1 1 1
Si core 4.74898 15.54898 2.03299 0 1 0 1 1 1
Si core 6.07500 11.47500 0.67500 0 1 0 1 1 1
Si core 6.07500 14.19099 3.39099 0 1 0 1 1 1
Si core 8.79099 11.47500 3.39099 0 1 0 1 1 1
Si core 8.79099 14.19099 0.67500 0 1 0 1 1 1
Si core 7.43299 12.83299 2.03299 0 1 0 1 1 1
Si core 7.43299 15.54898 4.74898 0 1 0 1 1 1
Si core 10.14898 12.83299 4.74898 0 1 0 1 1 1
Si core 10.14898 15.54898 2.03299 0 1 0 1 1 1
Si core 11.47500 11.47500 0.67500 0 1 0 1 1 1
Si core 11.47500 14.19099 3.39099 0 1 0 1 1 1
Si core 14.19099 11.47500 3.39099 0 1 0 1 1 1
Si core 14.19099 14.19099 0.67500 0 1 0 1 1 1
Si core 12.83299 12.83299 2.03299 0 1 0 1 1 1
Si core 12.83299 15.54898 4.74898 0 1 0 1 1 1
Si core 15.54898 12.83299 4.74898 0 1 0 1 1 1
Si core 15.54898 15.54898 2.03299 0 1 0 1 1 1
Si core 16.87500 11.47500 0.67500 0 1 0 1 1 1
Si core 16.87500 14.19099 3.39099 0 1 0 1 1 1
Si core 19.59099 11.47500 3.39099 0 1 0 1 1 1
Si core 19.59099 14.19099 0.67500 0 1 0 1 1 1
Si core 18.23299 12.83299 2.03299 0 1 0 1 1 1
Si core 18.23299 15.54898 4.74898 0 1 0 1 1 1
Si core 20.94898 12.83299 4.74898 0 1 0 1 1 1
Si core 20.94898 15.54898 2.03299 0 1 0 1 1 1
Si core 0.67500 16.87500 0.67500 0 1 0 1 1 1
Si core 0.67500 19.59099 3.39099 0 1 0 1 1 1
Si core 3.39099 16.87500 3.39099 0 1 0 1 1 1
Si core 3.39099 19.59099 0.67500 0 1 0 1 1 1
Si core 2.03299 18.23299 2.03299 0 1 0 1 1 1
Si core 2.03299 20.94898 4.74898 0 1 0 1 1 1
Si core 4.74898 18.23299 4.74898 0 1 0 1 1 1
Si core 4.74898 20.94898 2.03299 0 1 0 1 1 1
Si core 6.07500 16.87500 0.67500 0 1 0 1 1 1
Si core 6.07500 19.59099 3.39099 0 1 0 1 1 1
Si core 8.79099 16.87500 3.39099 0 1 0 1 1 1
Si core 8.79099 19.59099 0.67500 0 1 0 1 1 1
Si core 7.43299 18.23299 2.03299 0 1 0 1 1 1
Si core 7.43299 20.94898 4.74898 0 1 0 1 1 1
Si core 10.14898 18.23299 4.74898 0 1 0 1 1 1
Si core 10.14898 20.94898 2.03299 0 1 0 1 1 1
Si core 11.47500 16.87500 0.67500 0 1 0 1 1 1
Si core 11.47500 19.59099 3.39099 0 1 0 1 1 1
Si core 14.19099 16.87500 3.39099 0 1 0 1 1 1
Si core 14.19099 19.59099 0.67500 0 1 0 1 1 1
Si core 12.83299 18.23299 2.03299 0 1 0 1 1 1
Si core 12.83299 20.94898 4.74898 0 1 0 1 1 1
Si core 15.54898 18.23299 4.74898 0 1 0 1 1 1
Si core 15.54898 20.94898 2.03299 0 1 0 1 1 1
Si core 16.87500 16.87500 0.67500 0 1 0 1 1 1
Si core 16.87500 19.59099 3.39099 0 1 0 1 1 1
Si core 19.59099 16.87500 3.39099 0 1 0 1 1 1
Si core 19.59099 19.59099 0.67500 0 1 0 1 1 1
Si core 18.23299 18.23299 2.03299 0 1 0 1 1 1
Si core 18.23299 20.94898 4.74898 0 1 0 1 1 1
Si core 20.94898 18.23299 4.74898 0 1 0 1 1 1
Si core 20.94898 20.94898 2.03299 0 1 0 1 1 1
Si core 0.67500 0.67500 6.07500 0 1 0 1 1 1
Si core 0.67500 3.39099 8.79099 0 1 0 1 1 1
Si core 3.39099 0.67500 8.79099 0 1 0 1 1 1
Si core 3.39099 3.39099 6.07500 0 1 0 1 1 1
Si core 2.03299 2.03299 7.43299 0 1 0 1 1 1
Si core 2.03299 4.74898 10.14898 0 1 0 1 1 1
Si core 4.74898 2.03299 10.14898 0 1 0 1 1 1
Si core 4.74898 4.74898 7.43299 0 1 0 1 1 1
Si core 6.07500 0.67500 6.07500 0 1 0 1 1 1
Si core 6.07500 3.39099 8.79099 0 1 0 1 1 1
Si core 8.79099 0.67500 8.79099 0 1 0 1 1 1
Si core 8.79099 3.39099 6.07500 0 1 0 1 1 1
Si core 7.43299 2.03299 7.43299 0 1 0 1 1 1
Si core 7.43299 4.74898 10.14898 0 1 0 1 1 1
Si core 10.14898 2.03299 10.14898 0 1 0 1 1 1
Si core 10.14898 4.74898 7.43299 0 1 0 1 1 1
Si core 11.47500 0.67500 6.07500 0 1 0 1 1 1
Si core 11.47500 3.39099 8.79099 0 1 0 1 1 1
Si core 14.19099 0.67500 8.79099 0 1 0 1 1 1
Si core 14.19099 3.39099 6.07500 0 1 0 1 1 1
Si core 12.83299 2.03299 7.43299 0 1 0 1 1 1
Si core 12.83299 4.74898 10.14898 0 1 0 1 1 1
Si core 15.54898 2.03299 10.14898 0 1 0 1 1 1
Si core 15.54898 4.74898 7.43299 0 1 0 1 1 1
Si core 16.87500 0.67500 6.07500 0 1 0 1 1 1
Si core 16.87500 3.39099 8.79099 0 1 0 1 1 1
Si core 19.59099 0.67500 8.79099 0 1 0 1 1 1
Si core 19.59099 3.39099 6.07500 0 1 0 1 1 1
Si core 18.23299 2.03299 7.43299 0 1 0 1 1 1
Si core 18.23299 4.74898 10.14898 0 1 0 1 1 1
Si core 20.94898 2.03299 10.14898 0 1 0 1 1 1
Si core 20.94898 4.74898 7.43299 0 1 0 1 1 1
Si core 0.67500 6.07500 6.07500 0 1 0 1 1 1
Si core 0.67500 8.79099 8.79099 0 1 0 1 1 1
Si core 3.39099 6.07500 8.79099 0 1 0 1 1 1
Si core 3.39099 8.79099 6.07500 0 1 0 1 1 1
Si core 2.03299 7.43299 7.43299 0 1 0 1 1 1
Si core 2.03299 10.14898 10.14898 0 1 0 1 1 1
Si core 4.74898 7.43299 10.14898 0 1 0 1 1 1
Si core 4.74898 10.14898 7.43299 0 1 0 1 1 1
Si core 6.07500 6.07500 6.07500 0 1 0 1 1 1
Si core 6.07500 8.79099 8.79099 0 1 0 1 1 1
Si core 8.79099 6.07500 8.79099 0 1 0 1 1 1
Si core 8.79099 8.79099 6.07500 0 1 0 1 1 1
Si core 7.43299 7.43299 7.43299 0 1 0 1 1 1
Si core 7.43299 10.14898 10.14898 0 1 0 1 1 1
Si core 10.14898 7.43299 10.14898 0 1 0 1 1 1
Si core 10.14898 10.14898 7.43299 0 1 0 1 1 1
Si core 11.47500 6.07500 6.07500 0 1 0 1 1 1
Si core 11.47500 8.79099 8.79099 0 1 0 1 1 1
Si core 14.19099 6.07500 8.79099 0 1 0 1 1 1
Si core 14.19099 8.79099 6.07500 0 1 0 1 1 1
Si core 12.83299 7.43299 7.43299 0 1 0 1 1 1
Si core 12.83299 10.14898 10.14898 0 1 0 1 1 1
Si core 15.54898 7.43299 10.14898 0 1 0 1 1 1
Si core 15.54898 10.14898 7.43299 0 1 0 1 1 1
Si core 16.87500 6.07500 6.07500 0 1 0 1 1 1
Si core 16.87500 8.79099 8.79099 0 1 0 1 1 1
Si core 19.59099 6.07500 8.79099 0 1 0 1 1 1
Si core 19.59099 8.79099 6.07500 0 1 0 1 1 1
Si core 18.23299 7.43299 7.43299 0 1 0 1 1 1
Si core 18.23299 10.14898 10.14898 0 1 0 1 1 1
Si core 20.94898 7.43299 10.14898 0 1 0 1 1 1
Si core 20.94898 10.14898 7.43299 0 1 0 1 1 1
Si core 0.67500 11.47500 6.07500 0 1 0 1 1 1
Si core 0.67500 14.19099 8.79099 0 1 0 1 1 1
Si core 3.39099 11.47500 8.79099 0 1 0 1 1 1
Si core 3.39099 14.19099 6.07500 0 1 0 1 1 1
Si core 2.03299 12.83299 7.43299 0 1 0 1 1 1
Si core 2.03299 15.54898 10.14898 0 1 0 1 1 1
Si core 4.74898 12.83299 10.14898 0 1 0 1 1 1
Si core 4.74898 15.54898 7.43299 0 1 0 1 1 1
Si core 6.07500 11.47500 6.07500 0 1 0 1 1 1
Si core 6.07500 14.19099 8.79099 0 1 0 1 1 1
Si core 8.79099 11.47500 8.79099 0 1 0 1 1 1
Si core 8.79099 14.19099 6.07500 0 1 0 1 1 1
Si core 7.43299 12.83299 7.43299 0 1 0 1 1 1
Si core 7.43299 15.54898 10.14898 0 1 0 1 1 1
Si core 10.14898 12.83299 10.14898 0 1 0 1 1 1
Si core 10.14898 15.54898 7.43299 0 1 0 1 1 1
Si core 11.47500 11.47500 6.07500 0 1 0 1 1 1
Si core 11.47500 14.19099 8.79099 0 1 0 1 1 1
Si core 14.19099 11.47500 8.79099 0 1 0 1 1 1
Si core 14.19099 14.19099 6.07500 0 1 0 1 1 1
Si core 12.83299 12.83299 7.43299 0 1 0 1 1 1
Si core 12.83299 15.54898 10.14898 0 1 0 1 1 1
Si core 15.54898 12.83299 10.14898 0 1 0 1 1 1
Si core 15.54898 15.54898 7.43299 0 1 0 1 1 1
Si core 16.87500 11.47500 6.07500 0 1 0 1 1 1
Si core 16.87500 14.19099 8.79099 0 1 0 1 1 1
Si core 19.59099 11.47500 8.79099 0 1 0 1 1 1
Si core 19.59099 14.19099 6.07500 0 1 0 1 1 1
Si core 18.23299 12.83299 7.43299 0 1 0 1 1 1
Si core 18.23299 15.54898 10.14898 0 1 0 1 1 1
Si core 20.94898 12.83299 10.14898 0 1 0 1 1 1
Si core 20.94898 15.54898 7.43299 0 1 0 1 1 1
Si core 0.67500 16.87500 6.07500 0 1 0 1 1 1
Si core 0.67500 19.59099 8.79099 0 1 0 1 1 1
Si core 3.39099 16.87500 8.79099 0 1 0 1 1 1
Si core 3.39099 19.59099 6.07500 0 1 0 1 1 1
Si core 2.03299 18.23299 7.43299 0 1 0 1 1 1
Si core 2.03299 20.94898 10.14898 0 1 0 1 1 1
Si core 4.74898 18.23299 10.14898 0 1 0 1 1 1
Si core 4.74898 20.94898 7.43299 0 1 0 1 1 1
Si core 6.07500 16.87500 6.07500 0 1 0 1 1 1
Si core 6.07500 19.59099 8.79099 0 1 0 1 1 1
Si core 8.79099 16.87500 8.79099 0 1 0 1 1 1
Si core 8.79099 19.59099 6.07500 0 1 0 1 1 1
Si core 7.43299 18.23299 7.43299 0 1 0 1 1 1
Si core 7.43299 20.94898 10.14898 0 1 0 1 1 1
Si core 10.14898 18.23299 10.14898 0 1 0 1 1 1
Si core 10.14898 20.94898 7.43299 0 1 0 1 1 1
Si core 11.47500 16.87500 6.07500 0 1 0 1 1 1
Si core 11.47500 19.59099 8.79099 0 1 0 1 1 1
Si core 14.19099 16.87500 8.79099 0 1 0 1 1 1
Si core 14.19099 19.59099 6.07500 0 1 0 1 1 1
Si core 12.83299 18.23299 7.43299 0 1 0 1 1 1
Si core 12.83299 20.94898 10.14898 0 1 0 1 1 1
Si core 15.54898 18.23299 10.14898 0 1 0 1 1 1
Si core 15.54898 20.94898 7.43299 0 1 0 1 1 1
Si core 16.87500 16.87500 6.07500 0 1 0 1 1 1
Si core 16.87500 19.59099 8.79099 0 1 0 1 1 1
Si core 19.59099 16.87500 8.79099 0 1 0 1 1 1
Si core 19.59099 19.59099 6.07500 0 1 0 1 1 1
Si core 18.23299 18.23299 7.43299 0 1 0 1 1 1
Si core 18.23299 20.94898 10.14898 0 1 0 1 1 1
Si core 20.94898 18.23299 10.14898 0 1 0 1 1 1
Si core 20.94898 20.94898 7.43299 0 1 0 1 1 1
Si core 0.67500 0.67500 11.47500 0 1 0 1 1 1
Si core 0.67500 3.39099 14.19099 0 1 0 1 1 1
Si core 3.39099 0.67500 14.19099 0 1 0 1 1 1
Si core 3.39099 3.39099 11.47500 0 1 0 1 1 1
Si core 2.03299 2.03299 12.83299 0 1 0 1 1 1
Si core 2.03299 4.74898 15.54898 0 1 0 1 1 1
Si core 4.74898 2.03299 15.54898 0 1 0 1 1 1
Si core 4.74898 4.74898 12.83299 0 1 0 1 1 1
Si core 6.07500 0.67500 11.47500 0 1 0 1 1 1
Si core 6.07500 3.39099 14.19099 0 1 0 1 1 1
Si core 8.79099 0.67500 14.19099 0 1 0 1 1 1
Si core 8.79099 3.39099 11.47500 0 1 0 1 1 1
Si core 7.43299 2.03299 12.83299 0 1 0 1 1 1
Si core 7.43299 4.74898 15.54898 0 1 0 1 1 1
Si core 10.14898 2.03299 15.54898 0 1 0 1 1 1
Si core 10.14898 4.74898 12.83299 0 1 0 1 1 1
Si core 11.47500 0.67500 11.47500 0 1 0 1 1 1
Si core 11.47500 3.39099 14.19099 0 1 0 1 1 1
Si core 14.19099 0.67500 14.19099 0 1 0 1 1 1
Si core 14.19099 3.39099 11.47500 0 1 0 1 1 1
Si core 12.83299 2.03299 12.83299 0 1 0 1 1 1
Si core 12.83299 4.74898 15.54898 0 1 0 1 1 1
Si core 15.54898 2.03299 15.54898 0 1 0 1 1 1
Si core 15.54898 4.74898 12.83299 0 1 0 1 1 1
Si core 16.87500 0.67500 11.47500 0 1 0 1 1 1
Si core 16.87500 3.39099 14.19099 0 1 0 1 1 1
Si core 19.59099 0.67500 14.19099 0 1 0 1 1 1
Si core 19.59099 3.39099 11.47500 0 1 0 1 1 1
Si core 18.23299 2.03299 12.83299 0 1 0 1 1 1
Si core 18.23299 4.74898 15.54898 0 1 0 1 1 1
Si core 20.94898 2.03299 15.54898 0 1 0 1 1 1
Si core 20.94898 4.74898 12.83299 0 1 0 1 1 1
Si core 0.67500 6.07500 11.47500 0 1 0 1 1 1
Si core 0.67500 8.79099 14.19099 0 1 0 1 1 1
Si core 3.39099 6.07500 14.19099 0 1 0 1 1 1
Si core 3.39099 8.79099 11.47500 0 1 0 1 1 1
Si core 2.03299 7.43299 12.83299 0 1 0 1 1 1
Si core 2.03299 10.14898 15.54898 0 1 0 1 1 1
Si core 4.74898 7.43299 15.54898 0 1 0 1 1 1
Si core 4.74898 10.14898 12.83299 0 1 0 1 1 1
Si core 6.07500 6.07500 11.47500 0 1 0 1 1 1
Si core 6.07500 8.79099 14.19099 0 1 0 1 1 1
Si core 8.79099 6.07500 14.19099 0 1 0 1 1 1
Si core 8.79099 8.79099 11.47500 0 1 0 1 1 1
Si core 7.43299 7.43299 12.83299 0 1 0 1 1 1
Si core 7.43299 10.14898 15.54898 0 1 0 1 1 1
Si core 10.14898 7.43299 15.54898 0 1 0 1 1 1
Si core 10.14898 10.14898 12.83299 0 1 0 1 1 1
Si core 11.47500 6.07500 11.47500 0 1 0 1 1 1
Si core 11.47500 8.79099 14.19099 0 1 0 1 1 1
Si core 14.19099 6.07500 14.19099 0 1 0 1 1 1
Si core 14.19099 8.79099 11.47500 0 1 0 1 1 1
Si core 12.83299 7.43299 12.83299 0 1 0 1 1 1
Si core 12.83299 10.14898 15.54898 0 1 0 1 1 1
Si core 15.54898 7.43299 15.54898 0 1 0 1 1 1
Si core 15.54898 10.14898 12.83299 0 1 0 1 1 1
Si core 16.87500 6.07500 11.47500 0 1 0 1 1 1
Si core 16.87500 8.79099 14.19099 0 1 0 1 1 1
Si core 19.59099 6.07500 14.19099 0 1 0 1 1 1
Si core 19.59099 8.79099 11.47500 0 1 0 1 1 1
Si core 18.23299 7.43299 12.83299 0 1 0 1 1 1
Si core 18.23299 10.14898 15.54898 0 1 0 1 1 1
Si core 20.94898 7.43299 15.54898 0 1 0 1 1 1
Si core 20.94898 10.14898 12.83299 0 1 0 1 1 1
Si core 0.67500 11.47500 11.47500 0 1 0 1 1 1
Si core 0.67500 14.19099 14.19099 0 1 0 1 1 1
Si core 3.39099 11.47500 14.19099 0 1 0 1 1 1
Si core 3.39099 14.19099 11.47500 0 1 0 1 1 1
Si core 2.03299 12.83299 12.83299 0 1 0 1 1 1
Si core 2.03299 15.54898 15.54898 0 1 0 1 1 1
Si core 4.74898 12.83299 15.54898 0 1 0 1 1 1
Si core 4.74898 15.54898 12.83299 0 1 0 1 1 1
Si core 6.07500 11.47500 11.47500 0 1 0 1 1 1
Si core 6.07500 14.19099 14.19099 0 1 0 1 1 1
Si core 8.79099 11.47500 14.19099 0 1 0 1 1 1
Si core 8.79099 14.19099 11.47500 0 1 0 1 1 1
Si core 7.43299 12.83299 12.83299 0 1 0 1 1 1
Si core 7.43299 15.54898 15.54898 0 1 0 1 1 1
Si core 10.14898 12.83299 15.54898 0 1 0 1 1 1
Si core 10.14898 15.54898 12.83299 0 1 0 1 1 1
Si core 11.47500 11.47500 11.47500 0 1 0 1 1 1
Si core 11.47500 14.19099 14.19099 0 1 0 1 1 1
Si core 14.19099 11.47500 14.19099 0 1 0 1 1 1
Si core 14.19099 14.19099 11.47500 0 1 0 1 1 1
Si core 12.83299 12.83299 12.83299 0 1 0 1 1 1
Si core 12.83299 15.54898 15.54898 0 1 0 1 1 1
Si core 15.54898 12.83299 15.54898 0 1 0 1 1 1
Si core 15.54898 15.54898 12.83299 0 1 0 1 1 1
Si core 16.87500 11.47500 11.47500 0 1 0 1 1 1
Si core 16.87500 14.19099 14.19099 0 1 0 1 1 1
Si core 19.59099 11.47500 14.19099 0 1 0 1 1 1
Si core 19.59099 14.19099 11.47500 0 1 0 1 1 1
Si core 18.23299 12.83299 12.83299 0 1 0 1 1 1
Si core 18.23299 15.54898 15.54898 0 1 0 1 1 1
Si core 20.94898 12.83299 15.54898 0 1 0 1 1 1
Si core 20.94898 15.54898 12.83299 0 1 0 1 1 1
Si core 0.67500 16.87500 11.47500 0 1 0 1 1 1
Si core 0.67500 19.59099 14.19099 0 1 0 1 1 1
Si core 3.39099 16.87500 14.19099 0 1 0 1 1 1
Si core 3.39099 19.59099 11.47500 0 1 0 1 1 1
Si core 2.03299 18.23299 12.83299 0 1 0 1 1 1
Si core 2.03299 20.94898 15.54898 0 1 0 1 1 1
Si core 4.74898 18.23299 15.54898 0 1 0 1 1 1
Si core 4.74898 20.94898 12.83299 0 1 0 1 1 1
Si core 6.07500 16.87500 11.47500 0 1 0 1 1 1
Si core 6.07500 19.59099 14.19099 0 1 0 1 1 1
Si core 8.79099 16.87500 14.19099 0 1 0 1 1 1
Si core 8.79099 19.59099 11.47500 0 1 0 1 1 1
Si core 7.43299 18.23299 12.83299 0 1 0 1 1 1
Si core 7.43299 20.94898 15.54898 0 1 0 1 1 1
Si core 10.14898 18.23299 15.54898 0 1 0 1 1 1
Si core 10.14898 20.94898 12.83299 0 1 0 1 1 1
Si core 11.47500 16.87500 11.47500 0 1 0 1 1 1
Si core 11.47500 19.59099 14.19099 0 1 0 1 1 1
Si core 14.19099 16.87500 14.19099 0 1 0 1 1 1
Si core 14.19099 19.59099 11.47500 0 1 0 1 1 1
Si core 12.83299 18.23299 12.83299 0 1 0 1 1 1
Si core 12.83299 20.94898 15.54898 0 1 0 1 1 1
Si core 15.54898 18.23299 15.54898 0 1 0 1 1 1
Si core 15.54898 20.94898 12.83299 0 1 0 1 1 1
Si core 16.87500 16.87500 11.47500 0 1 0 1 1 1
Si core 16.87500 19.59099 14.19099 0 1 0 1 1 1
Si core 19.59099 16.87500 14.19099 0 1 0 1 1 1
Si core 19.59099 19.59099 11.47500 0 1 0 1 1 1
Si core 18.23299 18.23299 12.83299 0 1 0 1 1 1
Si core 18.23299 20.94898 15.54898 0 1 0 1 1 1
Si core 20.94898 18.23299 15.54898 0 1 0 1 1 1
Si core 20.94898 20.94898 12.83299 0 1 0 1 1 1
Si core 0.67500 0.67500 16.87500 0 1 0 1 1 1
Si core 0.67500 3.39099 19.59099 0 1 0 1 1 1
Si core 3.39099 0.67500 19.59099 0 1 0 1 1 1
Si core 3.39099 3.39099 16.87500 0 1 0 1 1 1
Si core 2.03299 2.03299 18.23299 0 1 0 1 1 1
Si core 2.03299 4.74898 20.94898 0 1 0 1 1 1
Si core 4.74898 2.03299 20.94898 0 1 0 1 1 1
Si core 4.74898 4.74898 18.23299 0 1 0 1 1 1
Si core 6.07500 0.67500 16.87500 0 1 0 1 1 1
Si core 6.07500 3.39099 19.59099 0 1 0 1 1 1
Si core 8.79099 0.67500 19.59099 0 1 0 1 1 1
Si core 8.79099 3.39099 16.87500 0 1 0 1 1 1
Si core 7.43299 2.03299 18.23299 0 1 0 1 1 1
Si core 7.43299 4.74898 20.94898 0 1 0 1 1 1
Si core 10.14898 2.03299 20.94898 0 1 0 1 1 1
Si core 10.14898 4.74898 18.23299 0 1 0 1 1 1
Si core 11.47500 0.67500 16.87500 0 1 0 1 1 1
Si core 11.47500 3.39099 19.59099 0 1 0 1 1 1
Si core 14.19099 0.67500 19.59099 0 1 0 1 1 1
Si core 14.19099 3.39099 16.87500 0 1 0 1 1 1
Si core 12.83299 2.03299 18.23299 0 1 0 1 1 1
Si core 12.83299 4.74898 20.94898 0 1 0 1 1 1
Si core 15.54898 2.03299 20.94898 0 1 0 1 1 1
Si core 15.54898 4.74898 18.23299 0 1 0 1 1 1
Si core 16.87500 0.67500 16.87500 0 1 0 1 1 1
Si core 16.87500 3.39099 19.59099 0 1 0 1 1 1
Si core 19.59099 0.67500 19.59099 0 1 0 1 1 1
Si core 19.59099 3.39099 16.87500 0 1 0 1 1 1
Si core 18.23299 2.03299 18.23299 0 1 0 1 1 1
Si core 18.23299 4.74898 20.94898 0 1 0 1 1 1
Si core 20.94898 2.03299 20.94898 0 1 0 1 1 1
Si core 20.94898 4.74898 18.23299 0 1 0 1 1 1
Si core 0.67500 6.07500 16.87500 0 1 0 1 1 1
Si core 0.67500 8.79099 19.59099 0 1 0 1 1 1
Si core 3.39099 6.07500 19.59099 0 1 0 1 1 1
Si core 3.39099 8.79099 16.87500 0 1 0 1 1 1
Si core 2.03299 7.43299 18.23299 0 1 0 1 1 1
Si core 2.03299 10.14898 20.94898 0 1 0 1 1 1
Si core 4.74898 7.43299 20.94898 0 1 0 1 1 1
Si core 4.74898 10.14898 18.23299 0 1 0 1 1 1
Si core 6.07500 6.07500 16.87500 0 1 0 1 1 1
Si core 6.07500 8.79099 19.59099 0 1 0 1 1 1
Si core 8.79099 6.07500 19.59099 0 1 0 1 1 1
Si core 8.79099 8.79099 16.87500 0 1 0 1 1 1
Si core 7.43299 7.43299 18.23299 0 1 0 1 1 1
Si core 7.43299 10.14898 20.94898 0 1 0 1 1 1
Si core 10.14898 7.43299 20.94898 0 1 0 1 1 1
Si core 10.14898 10.14898 18.23299 0 1 0 1 1 1
Si core 11.47500 6.07500 16.87500 0 1 0 1 1 1
Si core 11.47500 8.79099 19.59099 0 1 0 1 1 1
Si core 14.19099 6.07500 19.59099 0 1 0 1 1 1
Si core 14.19099 8.79099 16.87500 0 1 0 1 1 1
Si core 12.83299 7.43299 18.23299 0 1 0 1 1 1
Si core 12.83299 10.14898 20.94898 0 1 0 1 1 1
Si core 15.54898 7.43299 20.94898 0 1 0 1 1 1
Si core 15.54898 10.14898 18.23299 0 1 0 1 1 1
Si core 16.87500 6.07500 16.87500 0 1 0 1 1 1
Si core 16.87500 8.79099 19.59099 0 1 0 1 1 1
Si core 19.59099 6.07500 19.59099 0 1 0 1 1 1
Si core 19.59099 8.79099 16.87500 0 1 0 1 1 1
Si core 18.23299 7.43299 18.23299 0 1 0 1 1 1
Si core 18.23299 10.14898 20.94898 0 1 0 1 1 1
Si core 20.94898 7.43299 20.94898 0 1 0 1 1 1
Si core 20.94898 10.14898 18.23299 0 1 0 1 1 1
Si core 0.67500 11.47500 16.87500 0 1 0 1 1 1
Si core 0.67500 14.19099 19.59099 0 1 0 1 1 1
Si core 3.39099 11.47500 19.59099 0 1 0 1 1 1
Si core 3.39099 14.19099 16.87500 0 1 0 1 1 1
Si core 2.03299 12.83299 18.23299 0 1 0 1 1 1
Si core 2.03299 15.54898 20.94898 0 1 0 1 1 1
Si core 4.74898 12.83299 20.94898 0 1 0 1 1 1
Si core 4.74898 15.54898 18.23299 0 1 0 1 1 1
Si core 6.07500 11.47500 16.87500 0 1 0 1 1 1
Si core 6.07500 14.19099 19.59099 0 1 0 1 1 1
Si core 8.79099 11.47500 19.59099 0 1 0 1 1 1
Si core 8.79099 14.19099 16.87500 0 1 0 1 1 1
Si core 7.43299 12.83299 18.23299 0 1 0 1 1 1
Si core 7.43299 15.54898 20.94898 0 1 0 1 1 1
Si core 10.14898 12.83299 20.94898 0 1 0 1 1 1
Si core 10.14898 15.54898 18.23299 0 1 0 1 1 1
Si core 11.47500 11.47500 16.87500 0 1 0 1 1 1
Si core 11.47500 14.19099 19.59099 0 1 0 1 1 1
Si core 14.19099 11.47500 19.59099 0 1 0 1 1 1
Si core 14.19099 14.19099 16.87500 0 1 0 1 1 1
Si core 12.83299 12.83299 18.23299 0 1 0 1 1 1
Si core 12.83299 15.54898 20.94898 0 1 0 1 1 1
Si core 15.54898 12.83299 20.94898 0 1 0 1 1 1
Si core 15.54898 15.54898 18.23299 0 1 0 1 1 1
Si core 16.87500 11.47500 16.87500 0 1 0 1 1 1
Si core 16.87500 14.19099 19.59099 0 1 0 1 1 1
Si core 19.59099 11.47500 19.59099 0 1 0 1 1 1
Si core 19.59099 14.19099 16.87500 0 1 0 1 1 1
Si core 18.23299 12.83299 18.23299 0 1 0 1 1 1
Si core 18.23299 15.54898 20.94898 0 1 0 1 1 1
Si core 20.94898 12.83299 20.94898 0 1 0 1 1 1
Si core 20.94898 15.54898 18.23299 0 1 0 1 1 1
Si core 0.67500 16.87500 16.87500 0 1 0 1 1 1
Si core 0.67500 19.59099 19.59099 0 1 0 1 1 1
Si core 3.39099 16.87500 19.59099 0 1 0 1 1 1
Si core 3.39099 19.59099 16.87500 0 1 0 1 1 1
Si core 2.03299 18.23299 18.23299 0 1 0 1 1 1
Si core 2.03299 20.94898 20.94898 0 1 0 1 1 1
Si core 4.74898 18.23299 20.94898 0 1 0 1 1 1
Si core 4.74898 20.94898 18.23299 0 1 0 1 1 1
Si core 6.07500 16.87500 16.87500 0 1 0 1 1 1
Si core 6.07500 19.59099 19.59099 0 1 0 1 1 1
Si core 8.79099 16.87500 19.59099 0 1 0 1 1 1
Si core 8.79099 19.59099 16.87500 0 1 0 1 1 1
Si core 7.43299 18.23299 18.23299 0 1 0 1 1 1
Si core 7.43299 20.94898 20.94898 0 1 0 1 1 1
Si core 10.14898 18.23299 20.94898 0 1 0 1 1 1
Si core 10.14898 20.94898 18.23299 0 1 0 1 1 1
Si core 11.47500 16.87500 16.87500 0 1 0 1 1 1
Si core 11.47500 19.59099 19.59099 0 1 0 1 1 1
Si core 14.19099 16.87500 19.59099 0 1 0 1 1 1
Si core 14.19099 19.59099 16.87500 0 1 0 1 1 1
Si core 12.83299 18.23299 18.23299 0 1 0 1 1 1
Si core 12.83299 20.94898 20.94898 0 1 0 1 1 1
Si core 15.54898 18.23299 20.94898 0 1 0 1 1 1
Si core 15.54898 20.94898 18.23299 0 1 0 1 1 1
Si core 16.87500 16.87500 16.87500 0 1 0 1 1 1
Si core 16.87500 19.59099 19.59099 0 1 0 1 1 1
Si core 19.59099 16.87500 19.59099 0 1 0 1 1 1
Si core 19.59099 19.59099 16.87500 0 1 0 1 1 1
Si core 18.23299 18.23299 18.23299 0 1 0 1 1 1
Si core 18.23299 20.94898 20.94898 0 1 0 1 1 1
Si core 20.94898 18.23299 20.94898 0 1 0 1 1 1
Si core 20.94898 20.94898 18.23299 0 1 0 1 1 1

botwobody
Si core Si core 1830.8 471.18 2.4799 1.7322 2.70 3.00
borepulsive
Si core Si core 0.0 3 0.78734 1.7322 2.70 3.00
boattractive theta
Si core Si core 0.0000010999 3 0.78734 1.7322 100390.0 16.218 -0.59826 2.70 3.00