#
SystemName          bulk Ge with spin-orbit. Test bands
SystemLabel         ge_soc_bands

NumberOfAtoms       2
NumberOfSpecies     1
Spin SO

%block ChemicalSpeciesLabel
 1  32  Ge
%endblock ChemicalSpeciesLabel

PAO.BasisSize       DZP
PAO.EnergyShift     300 meV

LatticeConstant    5.66 Ang
%block LatticeVectors
  0.500  0.500  0.000
  0.000  0.500  0.500
  0.500  0.000  0.500
%endblock LatticeVectors

MeshCutoff         200.0 Ry

MaxSCFIterations    50  
DM.MixingWeight      0.3 
DM.NumberPulay       3  
DM.Tolerance         1.d-4
 
kgridcutoff          7. Ang

SolutionMethod       diagon    
ElectronicTemperature  25 meV  

AtomicCoordinatesFormat  Fractional
%block AtomicCoordinatesAndAtomicSpecies
    0.    0.    0.     1  Ge        1
    0.25  0.25  0.25   1  Ge        2
%endblock AtomicCoordinatesAndAtomicSpecies

BandLinesScale  pi/a
%block BandLines                  # These are comments
 1  0.000  0.000  0.000  \Gamma   # Begin at Gamma
25  2.000  0.000  0.000     X     # 25 points from Gamma to X
10  2.000  1.000  0.000     W     # 10 points from X to W
15  1.000  1.000  1.000     L     # 15 points from W to L
20  0.000  0.000  0.000  \Gamma   # 20 points from L to Gamma
25  1.500  1.500  1.500     K     # 25 points from Gamma to K
%endblock BandLines
