SystemLabel C_zz

TBT.TSHS ../DEV_C_zz.nc
%block TBT.Elec.left
  TSHS ../ELEC_C_zz.nc
  chemical-potential left
  semi-inf-direction -a2
  electrode-position 1
  check-kgrid F
%endblock TBT.Elec.left
%block TBT.Elec.right
  TSHS ../ELEC_C_zz.nc
  chemical-potential Right
  semi-inf-direction +a2
  electrode-position end -1
  check-kgrid F
%endblock TBT.Elec.right

%include TBT.fdf
