SystemLabel SQUARE

TBT.TSHS ../SQUARE_DEV.nc

%block TBT.Elec.left
  TSHS ../SQUARE_EL.nc
  chemical-potential left
  semi-inf-direction -a2
  electrode-position 1
  check-kgrid F
%endblock TBT.Elec.left
%block TBT.Elec.right
  TSHS ../SQUARE_EL.nc
  chemical-potential Right
  semi-inf-direction +a2
  electrode-position end -1
  check-kgrid F
%endblock TBT.Elec.right

%include TBT.fdf
